************************************************************************
file with basedata            : n/a
initial value random generator: n/a
************************************************************************
projects                      :  1
jobs (incl. supersource/sink ):  122
horizon                       :  633
RESOURCES
  - renewable                 :  4   R
  - nonrenewable              :  0   N
  - doubly constrained        :  0   D
************************************************************************
PROJECT INFORMATION:
pronr.  #jobs rel.date duedate tardcost  MPM-Time
    1    120      0       79       73       79
************************************************************************
PRECEDENCE RELATIONS:
jobnr.    #modes  #successors   successors
   1        1          3           2   3   4
   2        1          3          19  24  36
   3        1          1           6
   4        1          3           5   7   9
   5        1          3          12  15  46
   6        1          3          10  39  40
   7        1          3           8  11  14
   8        1          3          17  48  87
   9        1          3          23  39  67
  10        1          3          13  61  99
  11        1          2          25  28
  12        1          3          22  25  32
  13        1          1          20
  14        1          3          16  49  81
  15        1          2          21  60
  16        1          3          29  52  72
  17        1          3          18  37  70
  18        1          1          31
  19        1          3          50  86  91
  20        1          2          84 103
  21        1          3          27  65  77
  22        1          2          26  29
  23        1          2          74  78
  24        1          2          38  73
  25        1          1          30
  26        1          1          76
  27        1          3          35  45  54
  28        1          3          47  56 109
  29        1          1         101
  30        1          3          33  44  51
  31        1          2          34 110
  32        1          3          42  47  74
  33        1          3          53  75 113
  34        1          1          60
  35        1          1         117
  36        1          1         101
  37        1          1          79
  38        1          3          41  43  68
  39        1          1          59
  40        1          3          53  70  75
  41        1          3          57  88 107
  42        1          1          90
  43        1          1          95
  44        1          2          58 117
  45        1          3          55  83  86
  46        1          3          62  89 114
  47        1          1          59
  48        1          1         105
  49        1          3          58  61  66
  50        1          3          61  97 102
  51        1          2          64  95
  52        1          1         111
  53        1          2          63 106
  54        1          3          66  68  93
  55        1          2          78 104
  56        1          3          62  82  89
  57        1          2          58 115
  58        1          1          71
  59        1          1          76
  60        1          3          80  98 108
  61        1          1         108
  62        1          1          85
  63        1          3          79 101 111
  64        1          1         106
  65        1          1         100
  66        1          3          69  84  99
  67        1          1          85
  68        1          2          74 121
  69        1          1         106
  70        1          1          92
  71        1          2          77  84
  72        1          2          80  85
  73        1          3          91  92  94
  74        1          3          81  87  97
  75        1          1          81
  76        1          2          78  92
  77        1          1          94
  78        1          1          98
  79        1          2          82 105
  80        1          1         113
  81        1          1          90
  82        1          1          98
  83        1          1          94
  84        1          1         113
  85        1          3          86  88 117
  86        1          2          95 110
  87        1          2          88 109
  88        1          2         100 108
  89        1          2         104 107
  90        1          2         109 114
  91        1          3          96 102 104
  92        1          1          96
  93        1          2          96  99
  94        1          2         100 102
  95        1          1         107
  96        1          2          97 121
  97        1          1         103
  98        1          1         112
  99        1          1         110
 100        1          1         116
 101        1          1         120
 102        1          1         103
 103        1          1         114
 104        1          2         105 120
 105        1          1         115
 106        1          1         112
 107        1          1         118
 108        1          1         112
 109        1          1         118
 110        1          2         111 115
 111        1          1         119
 112        1          1         116
 113        1          1         120
 114        1          1         116
 115        1          1         121
 116        1          1         119
 117        1          1         118
 118        1          1         119
 119        1          1         122
 120        1          1         122
 121        1          1         122
 122        1          0        
************************************************************************
REQUESTS/DURATIONS:
jobnr. mode duration  R 1  R 2  R 3  R 4
------------------------------------------------------------------------
  1      1     0    
  2      1     6       0   0   0   0   0   0
                       0   0   0   0   0   0
                       0   0   0   0   0   0
                      10  10  10  10   0  10
  3      1     6       0   0   0   0   0   0
                       0   0   0   0   0   0
                       7   7   0   7   7   0
                       9   9   0   9   9   0
  4      1     3       0   0   0
                       0   9   9
                       0   0   0
                       0   0   0
  5      1     9       0   8   0   8   8   0   8   8   0
                       0   7   0   7   7   0   7   7   0
                       0   8   0   8   8   0   8   8   0
                       0   0   0   0   0   0   0   0   0
  6      1     9       5   5   5   5   5   5   5   0   5
                       7   7   7   7   7   7   7   0   7
                       5   5   5   5   5   5   5   0   5
                       0   0   0   0   0   0   0   0   0
  7      1     4       0   0   0   0
                       5   5   5   5
                       0   0   0   0
                       3   3   3   3
  8      1     7       0   0   0   0   0   0   0
                       6   6   6   6   0   6   6
                       0   0   0   0   0   0   0
                       2   2   2   2   0   2   2
  9      1     5       7   7   7   7   7
                       0   0   0   0   0
                       0   0   0   0   0
                       3   3   3   3   3
 10      1    10       1   1   0   1   1   1   1   1   1   1
                       0   0   0   0   0   0   0   0   0   0
                       5   5   0   5   5   5   5   5   5   5
                       8   8   0   8   8   8   8   8   8   8
 11      1     1       0
                      10
                       0
                      10
 12      1     3       6   6   6
                       0   0   0
                       7   7   7
                       2   2   2
 13      1     8       0   0   0   0   0   0   0   0
                       0   0   0   0   0   0   0   0
                       0   0   0   0   0   0   0   0
                       7   0   7   7   0   7   7   7
 14      1     4       6   6   6   6
                      10  10  10  10
                       0   0   0   0
                       8   8   8   8
 15      1     5       2   2   2   2   0
                       0   0   0   0   0
                       0   0   0   0   0
                       0   0   0   0   0
 16      1     2       0   0
                       0   0
                       0   0
                       0   0
 17      1     1       0
                      10
                       2
                       0
 18      1     7       0   0   0   0   0   0   0
                       6   6   6   6   6   6   0
                       0   0   0   0   0   0   0
                       2   2   2   2   2   2   0
 19      1     9       0   0   7   7   0   7   7   7   7
                       0   0   3   3   0   3   3   3   3
                       0   0   0   0   0   0   0   0   0
                       0   0   7   7   0   7   7   7   7
 20      1     4       0   0   0   0
                       3   0   3   3
                      10   0  10  10
                       2   0   2   2
 21      1     1       0
                       0
                       0
                       0
 22      1     8       0   0   0   0   0   0   0   0
                       3   3   0   3   0   3   0   3
                       4   4   0   4   0   4   0   4
                      10  10   0  10   0  10   0  10
 23      1     4       4   4   4   4
                       0   0   0   0
                       3   3   3   3
                       2   2   2   2
 24      1     3       0   0   0
                       4   4   0
                       0   0   0
                       0   0   0
 25      1     6       0   0   1   1   1   0
                       0   0   0   0   0   0
                       0   0   0   0   0   0
                       0   0   0   0   0   0
 26      1     9       0   0   0   0   0   0   0   0   0
                       0   2   0   2   0   2   2   0   0
                       0   2   0   2   0   2   2   0   0
                       0  10   0  10   0  10  10   0   0
 27      1     9       0   0   0   0   0   0   0   0   0
                       0   0   0   0   0   0   0   0   0
                       0   0   0   0   0   0   0   0   0
                       5   5   5   5   5   5   5   5   0
 28      1     6       6   6   6   6   6   6
                       0   0   0   0   0   0
                       0   0   0   0   0   0
                       9   9   9   9   9   9
 29      1     5       0   0   0   0   0
                       0   0   0   0   0
                       6   6   6   6   6
                       5   5   5   5   5
 30      1     5       0   0   0   0   0
                       0   0   0   0   0
                       0   9   9   0   9
                       0   0   0   0   0
 31      1    10       0   8   8   0   8   8   0   8   8   8
                       0   0   0   0   0   0   0   0   0   0
                       0   8   8   0   8   8   0   8   8   8
                       0   8   8   0   8   8   0   8   8   8
 32      1     2       0   0
                       3   3
                       0   0
                       0   0
 33      1     8       5   5   5   0   0   5   5   5
                       0   0   0   0   0   0   0   0
                       7   7   7   0   0   7   7   7
                       6   6   6   0   0   6   6   6
 34      1     1       0
                       0
                       0
                      10
 35      1     4       6   6   6   6
                       5   5   5   5
                       8   8   8   8
                      10  10  10  10
 36      1     4       2   2   2   2
                       0   0   0   0
                       1   1   1   1
                       8   8   8   8
 37      1     5       0   9   9   9   9
                       0   8   8   8   8
                       0   1   1   1   1
                       0   0   0   0   0
 38      1     6       3   3   0   3   0   3
                       0   0   0   0   0   0
                       0   0   0   0   0   0
                       0   0   0   0   0   0
 39      1     1       0
                       0
                       1
                       4
 40      1    10       1   1   1   1   1   0   1   1   1   1
                       2   2   2   2   2   0   2   2   2   2
                       0   0   0   0   0   0   0   0   0   0
                       5   5   5   5   5   0   5   5   5   5
 41      1     1       0
                       0
                       0
                       0
 42      1     1       0
                       0
                       4
                       0
 43      1     9       8   0   8   8   8   0   8   8   8
                       0   0   0   0   0   0   0   0   0
                       2   0   2   2   2   0   2   2   2
                       6   0   6   6   6   0   6   6   6
 44      1     1       6
                       0
                       4
                       9
 45      1     3       0   1   1
                       0   0   0
                       0   0   0
                       0   0   0
 46      1     4       0   0   0   0
                       0   0   0   0
                       6   6   6   6
                       0   0   0   0
 47      1     2       2   2
                       0   0
                       0   0
                       3   3
 48      1     3       0   0   0
                       0   0   9
                       0   0  10
                       0   0   0
 49      1     1       8
                       0
                       8
                       0
 50      1     2       3   3
                       6   6
                       2   2
                       0   0
 51      1    10       0   0   0   0   0   0   0   0   0   0
                       0   0   0   0   0   0   0   0   0   0
                       0   0   0   0   0   0   0   0   0   0
                       8   0   8   8   8   8   0   0   0   0
 52      1     6       5   5   5   5   5   5
                       0   0   0   0   0   0
                       0   0   0   0   0   0
                       0   0   0   0   0   0
 53      1     1       2
                       7
                       0
                       7
 54      1     2       0   0
                       0   0
                       0   0
                       1   1
 55      1    10       4   4   4   4   4   4   0   4   4   4
                       0   0   0   0   0   0   0   0   0   0
                       4   4   4   4   4   4   0   4   4   4
                       0   0   0   0   0   0   0   0   0   0
 56      1     9       0   0   0   0   0   0   0   0   0
                       3   3   3   3   3   3   0   3   3
                       0   0   0   0   0   0   0   0   0
                       0   0   0   0   0   0   0   0   0
 57      1     5       9   9   0   9   9
                       0   0   0   0   0
                       0   0   0   0   0
                       8   8   0   8   8
 58      1     6       0   0   0   0   0   0
                       0   0   0   0   0   0
                       0   0   0   0   0   0
                       6   6   6   6   6   6
 59      1     3       0   0   0
                       4   4   4
                       3   3   3
                       0   0   0
 60      1     7       0   0   0   0   0   0   0
                       0   0   0   0   0   0   0
                       6   6   6   0   6   6   6
                       7   7   7   0   7   7   7
 61      1     8       0   0   0   0   0   0   0   0
                       0   0   0   0   0   0   0   0
                       1   0   1   0   1   1   1   1
                      10   0  10   0  10  10  10  10
 62      1    10       7   7   7   0   7   0   7   7   0   7
                       0   0   0   0   0   0   0   0   0   0
                       0   0   0   0   0   0   0   0   0   0
                      10  10  10   0  10   0  10  10   0  10
 63      1     2       2   2
                       9   9
                       0   0
                       0   0
 64      1     2      10  10
                       0   0
                       0   0
                       1   1
 65      1     6       9   9   0   9   9   0
                       0   0   0   0   0   0
                       0   0   0   0   0   0
                       0   0   0   0   0   0
 66      1     8       0   0   0   0   0   0   0   0
                       0  10   0  10  10  10  10   0
                       0   5   0   5   5   5   5   0
                       0   1   0   1   1   1   1   0
 67      1     2       0   0
                       6   6
                       6   6
                       0   0
 68      1    10       0   0   0   0   0   0   0   0   0   0
                       4   0   4   4   0   4   0   4   4   4
                       9   0   9   9   0   9   0   9   9   9
                      10   0  10  10   0  10   0  10  10  10
 69      1     6       0   0   0   0   0   0
                       6   0   0   6   6   6
                      10   0   0  10  10  10
                       0   0   0   0   0   0
 70      1     8       6   6   6   6   6   6   6   6
                       0   0   0   0   0   0   0   0
                      10  10  10  10  10  10  10  10
                       3   3   3   3   3   3   3   3
 71      1     1       8
                       1
                       0
                       0
 72      1     8       5   5   5   5   5   5   5   5
                       1   1   1   1   1   1   1   1
                       0   0   0   0   0   0   0   0
                       5   5   5   5   5   5   5   5
 73      1     3       4   4   4
                       0   0   0
                       3   3   3
                      10  10  10
 74      1     4       0   2   0   2
                       0   9   0   9
                       0   0   0   0
                       0   6   0   6
 75      1     1      10
                       0
                       0
                       2
 76      1     6       0   0   0   0   0   0
                       0   0   0   0   0   0
                       7   7   7   7   0   7
                       6   6   6   6   0   6
 77      1     6       0   0   0   0   0   0
                       0   0   0   0   0   0
                       6   6   6   6   6   0
                       3   3   3   3   3   0
 78      1    10       0   0   0   0   0   0   0   0   0   0
                       0   0   0   0   0   0   0   0   0   0
                       0   4   4   0   4   4   4   0   4   4
                       0   7   7   0   7   7   7   0   7   7
 79      1     8       2   2   2   2   2   0   2   2
                       6   6   6   6   6   0   6   6
                       0   0   0   0   0   0   0   0
                       0   0   0   0   0   0   0   0
 80      1     6       4   4   4   4   0   0
                       0   0   0   0   0   0
                       0   0   0   0   0   0
                       0   0   0   0   0   0
 81      1     2       0   0
                       0   0
                       4   4
                       0   0
 82      1     8       2   2   2   2   2   0   2   2
                       2   2   2   2   2   0   2   2
                       6   6   6   6   6   0   6   6
                       0   0   0   0   0   0   0   0
 83      1     8       0   0   0   0   0   0   0   0
                       0   0   0   0   0   0   0   0
                       7   7   7   0   0   7   7   7
                       3   3   3   0   0   3   3   3
 84      1     6       7   7   7   7   7   7
                       0   0   0   0   0   0
                       0   0   0   0   0   0
                       0   0   0   0   0   0
 85      1     1       0
                       1
                       0
                       0
 86      1     8       0   0   0   0   0   0   0   0
                       6   0   0   6   6   0   6   0
                       0   0   0   0   0   0   0   0
                       7   0   0   7   7   0   7   0
 87      1     8       6   6   6   0   0   6   0   6
                       9   9   9   0   0   9   0   9
                       0   0   0   0   0   0   0   0
                       8   8   8   0   0   8   0   8
 88      1     5       0   0   0   0   0
                       0   7   7   7   7
                       0  10  10  10  10
                       0   4   4   4   4
 89      1     9       0   0   0   0   0   0   0   0   0
                       0   0   0   0   0   0   0   0   0
                       2   2   2   2   2   2   2   2   0
                       0   0   0   0   0   0   0   0   0
 90      1     4       8   0   0   8
                       1   0   0   1
                       5   0   0   5
                       0   0   0   0
 91      1     4       0   0   0   0
                       0   0   0   0
                       8   8   0   8
                       0   0   0   0
 92      1     1       0
                       0
                       0
                       0
 93      1     6       0   0   0   0   0   0
                       0   0   0   0   0   0
                       0   0   0   0   0   0
                       5   5   5   5   5   5
 94      1     3       2   2   2
                       4   4   4
                       0   0   0
                       0   0   0
 95      1     7       0   0   0   0   0   0   0
                       0   0   0   0   0   0   0
                       0   0   0   0   0   0   0
                       1   1   1   1   0   0   0
 96      1     8       0   0   0   0   0   0   0   0
                       0   0   0   0   0   0   0   0
                       0   0   0   0   0   0   0   0
                       9   9   9   9   9   9   0   9
 97      1    10       0   0   0   0   0   0   0   0   0   0
                      10  10  10  10   0  10   0   0  10  10
                       0   0   0   0   0   0   0   0   0   0
                       9   9   9   9   0   9   0   0   9   9
 98      1     5       0   6   6   6   6
                       0   6   6   6   6
                       0   6   6   6   6
                       0   0   0   0   0
 99      1     7       0   0   0   0   0   0   0
                       0   0   0   0   0   0   0
                       3   0   3   3   3   3   3
                       0   0   0   0   0   0   0
100      1    10       6   6   6   0   0   6   6   6   6   6
                       0   0   0   0   0   0   0   0   0   0
                       5   5   5   0   0   5   5   5   5   5
                       0   0   0   0   0   0   0   0   0   0
101      1    10       0   0   0   0   0   0   0   0   0   0
                       8   0   0   8   8   8   0   8   8   8
                       9   0   0   9   9   9   0   9   9   9
                       0   0   0   0   0   0   0   0   0   0
102      1     1       1
                       0
                       4
                      10
103      1     5       4   4   4   0   4
                       0   0   0   0   0
                       0   0   0   0   0
                       0   0   0   0   0
104      1     8       0   0   0   0   0   0   0   0
                       0   0   0   0   0   0   0   0
                       0   0   0   0   0   0   0   0
                      10  10   0  10  10  10  10  10
105      1     7       0   0   0   0   0   0   0
                       3   3   0   3   3   3   3
                       0   0   0   0   0   0   0
                       0   0   0   0   0   0   0
106      1     6       0   0   0   0   0   0
                       8   8   8   8   8   8
                       0   0   0   0   0   0
                      10  10  10  10  10  10
107      1     6       1   1   1   0   1   1
                       0   0   0   0   0   0
                       0   0   0   0   0   0
                       5   5   5   0   5   5
108      1     6       0   0   0   0   0   0
                       0   2   2   2   2   2
                       0   0   0   0   0   0
                       0   1   1   1   1   1
109      1     6       7   7   0   7   7   7
                       0   0   0   0   0   0
                       8   8   0   8   8   8
                       0   0   0   0   0   0
110      1     4       9   0   9   0
                       0   0   0   0
                       5   0   5   0
                       0   0   0   0
111      1     3       5   5   5
                       0   0   0
                       6   6   6
                       1   1   1
112      1     1       6
                       0
                      10
                       0
113      1     4       0   0   0   0
                       2   2   2   2
                       0   0   0   0
                       7   7   7   7
114      1     1       5
                       2
                       6
                       0
115      1     1       3
                       0
                       2
                       0
116      1    10       0   5   5   5   0   5   0   5   5   5
                       0   6   6   6   0   6   0   6   6   6
                       0   0   0   0   0   0   0   0   0   0
                       0   0   0   0   0   0   0   0   0   0
117      1     6       0   0   0   0   0   0
                       0   0   0   0   0   0
                       0   7   7   7   7   7
                       0   0   0   0   0   0
118      1     2       0   0
                       2   2
                       0   0
                       0   0
119      1     3       0   0   0
                       0   0   0
                       0   0   0
                       0   5   5
120      1     4       0   7   7   7
                       0   0   0   0
                       0   4   4   4
                       0   7   7   7
121      1     8       0   0   0   0   0   0   0   0
                       0   0   0   0   0   0   0   0
                       6   6   6   6   6   6   6   6
                       8   8   8   8   8   8   8   8
122      1     0    
************************************************************************
RESOURCEAVAILABILITIES:
  R 1  R 2  R 3  R 4

  30  30  30   0   0  30  30  30  30  30  30  30   0  30  30  30  30  30  30  30  30  30  30  30  30   0   0  30   0  30  30  30  30   0  30  30  30  30   0  30  30  30  30  30  30   0  30   0  30  30  30  30  30  30  30  30  30  30   0  30  30  30   0   0   0  30  30  30  30   0  30  30  30  30  30  30  30  30   0  30  30  30   0  30   0  30   0  30  30  30  30  30  30  30  30  30  30  30  30  30  30   0  30  30   0  30   0  30  30  30   0  30  30  30  30  30  30   0   0  30  30  30  30  30   0   0  30  30  30  30   0  30  30  30  30   0  30   0  30  30  30  30  30  30  30  30   0  30  30   0  30  30  30  30  30  30  30  30  30  30  30  30  30   0  30  30   0  30  30  30  30  30  30  30  30  30   0  30  30  30  30   0  30  30  30   0  30  30   0  30  30  30   0  30  30  30  30  30  30  30  30   0  30  30  30   0  30  30  30  30  30  30   0  30  30  30  30  30  30  30   0  30  30  30  30   0  30  30  30  30   0  30   0  30  30   0  30  30  30  30  30  30  30  30  30  30  30  30   0  30   0  30  30   0  30  30  30  30  30  30  30  30  30  30  30  30  30  30  30   0  30  30  30  30  30  30  30  30  30  30  30   0  30  30  30  30  30   0   0  30   0  30  30  30   0  30  30  30  30  30  30  30  30   0  30   0  30   0  30  30  30   0   0   0  30  30  30   0  30  30  30  30  30  30  30   0  30  30   0  30  30  30  30   0   0  30   0  30   0  30  30  30  30  30  30  30  30   0  30   0  30  30  30  30  30   0   0  30   0   0   0  30  30   0  30  30   0  30  30   0  30  30  30  30  30  30  30  30  30   0   0  30  30  30  30  30  30  30  30  30  30  30  30   0   0  30  30   0   0  30  30  30  30  30  30  30  30  30  30  30  30  30  30  30   0  30  30   0  30  30  30  30  30  30  30  30  30   0  30  30  30  30  30  30  30  30   0  30  30  30  30  30   0  30   0  30  30  30  30  30   0  30  30  30  30  30  30  30  30   0  30  30  30  30  30  30   0  30   0  30  30   0  30  30  30  30  30  30  30   0  30  30   0  30  30  30  30  30  30  30   0  30  30  30  30  30   0  30  30  30   0  30  30  30  30  30  30  30   0  30  30  30  30  30   0  30  30  30  30  30  30  30  30  30  30   0  30  30   0  30  30  30   0  30  30  30  30  30  30  30  30  30  30  30  30  30  30   0  30  30  30  30   0  30  30  30   0  30   0  30  30  30  30   0  30   0  30  30  30  30  30  30  30  30   0  30  30  30  30   0  30   0   0   0  30  30  30   0   0  30  30  30  30   0  30  30  30  30  30   0  30   0  30  30  30  30  30  30  30  30   0  30  30   0  30  30  30   0  30  30  30  30  30  30  30  30   0  30  30  30  30  30  30

  28  28  28   0   0  28  28  28  28  28  28  28   0  28  28  28  28  28  28  28  28  28  28  28  28   0   0  28   0  28  28  28  28   0  28  28  28  28   0  28  28  28  28  28  28   0  28   0  28  28  28  28  28  28  28  28  28  28   0  28  28  28   0   0   0  28  28  28  28   0  28  28  28  28  28  28  28  28   0  28  28  28   0  28   0  28   0  28  28  28  28  28  28  28  28  28  28  28  28  28  28   0  28  28   0  28   0  28  28  28   0  28  28  28  28  28  28   0   0  28  28  28  28  28   0   0  28  28  28  28   0  28  28  28  28   0  28   0  28  28  28  28  28  28  28  28   0  28  28   0  28  28  28  28  28  28  28  28  28  28  28  28  28   0  28  28   0  28  28  28  28  28  28  28  28  28   0  28  28  28  28   0  28  28  28   0  28  28   0  28  28  28   0  28  28  28  28  28  28  28  28   0  28  28  28   0  28  28  28  28  28  28   0  28  28  28  28  28  28  28   0  28  28  28  28   0  28  28  28  28   0  28   0  28  28   0  28  28  28  28  28  28  28  28  28  28  28  28   0  28   0  28  28   0  28  28  28  28  28  28  28  28  28  28  28  28  28  28  28   0  28  28  28  28  28  28  28  28  28  28  28   0  28  28  28  28  28   0   0  28   0  28  28  28   0  28  28  28  28  28  28  28  28   0  28   0  28   0  28  28  28   0   0   0  28  28  28   0  28  28  28  28  28  28  28   0  28  28   0  28  28  28  28   0   0  28   0  28   0  28  28  28  28  28  28  28  28   0  28   0  28  28  28  28  28   0   0  28   0   0   0  28  28   0  28  28   0  28  28   0  28  28  28  28  28  28  28  28  28   0   0  28  28  28  28  28  28  28  28  28  28  28  28   0   0  28  28   0   0  28  28  28  28  28  28  28  28  28  28  28  28  28  28  28   0  28  28   0  28  28  28  28  28  28  28  28  28   0  28  28  28  28  28  28  28  28   0  28  28  28  28  28   0  28   0  28  28  28  28  28   0  28  28  28  28  28  28  28  28   0  28  28  28  28  28  28   0  28   0  28  28   0  28  28  28  28  28  28  28   0  28  28   0  28  28  28  28  28  28  28   0  28  28  28  28  28   0  28  28  28   0  28  28  28  28  28  28  28   0  28  28  28  28  28   0  28  28  28  28  28  28  28  28  28  28   0  28  28   0  28  28  28   0  28  28  28  28  28  28  28  28  28  28  28  28  28  28   0  28  28  28  28   0  28  28  28   0  28   0  28  28  28  28   0  28   0  28  28  28  28  28  28  28  28   0  28  28  28  28   0  28   0   0   0  28  28  28   0   0  28  28  28  28   0  28  28  28  28  28   0  28   0  28  28  28  28  28  28  28  28   0  28  28   0  28  28  28   0  28  28  28  28  28  28  28  28   0  28  28  28  28  28  28

  39  39  39   0   0  39  39  39  39  39  39  39   0  39  39  39  39  39  39  39  39  39  39  39  39   0   0  39   0  39  39  39  39   0  39  39  39  39   0  39  39  39  39  39  39   0  39   0  39  39  39  39  39  39  39  39  39  39   0  39  39  39   0   0   0  39  39  39  39   0  39  39  39  39  39  39  39  39   0  39  39  39   0  39   0  39   0  39  39  39  39  39  39  39  39  39  39  39  39  39  39   0  39  39   0  39   0  39  39  39   0  39  39  39  39  39  39   0   0  39  39  39  39  39   0   0  39  39  39  39   0  39  39  39  39   0  39   0  39  39  39  39  39  39  39  39   0  39  39   0  39  39  39  39  39  39  39  39  39  39  39  39  39   0  39  39   0  39  39  39  39  39  39  39  39  39   0  39  39  39  39   0  39  39  39   0  39  39   0  39  39  39   0  39  39  39  39  39  39  39  39   0  39  39  39   0  39  39  39  39  39  39   0  39  39  39  39  39  39  39   0  39  39  39  39   0  39  39  39  39   0  39   0  39  39   0  39  39  39  39  39  39  39  39  39  39  39  39   0  39   0  39  39   0  39  39  39  39  39  39  39  39  39  39  39  39  39  39  39   0  39  39  39  39  39  39  39  39  39  39  39   0  39  39  39  39  39   0   0  39   0  39  39  39   0  39  39  39  39  39  39  39  39   0  39   0  39   0  39  39  39   0   0   0  39  39  39   0  39  39  39  39  39  39  39   0  39  39   0  39  39  39  39   0   0  39   0  39   0  39  39  39  39  39  39  39  39   0  39   0  39  39  39  39  39   0   0  39   0   0   0  39  39   0  39  39   0  39  39   0  39  39  39  39  39  39  39  39  39   0   0  39  39  39  39  39  39  39  39  39  39  39  39   0   0  39  39   0   0  39  39  39  39  39  39  39  39  39  39  39  39  39  39  39   0  39  39   0  39  39  39  39  39  39  39  39  39   0  39  39  39  39  39  39  39  39   0  39  39  39  39  39   0  39   0  39  39  39  39  39   0  39  39  39  39  39  39  39  39   0  39  39  39  39  39  39   0  39   0  39  39   0  39  39  39  39  39  39  39   0  39  39   0  39  39  39  39  39  39  39   0  39  39  39  39  39   0  39  39  39   0  39  39  39  39  39  39  39   0  39  39  39  39  39   0  39  39  39  39  39  39  39  39  39  39   0  39  39   0  39  39  39   0  39  39  39  39  39  39  39  39  39  39  39  39  39  39   0  39  39  39  39   0  39  39  39   0  39   0  39  39  39  39   0  39   0  39  39  39  39  39  39  39  39   0  39  39  39  39   0  39   0   0   0  39  39  39   0   0  39  39  39  39   0  39  39  39  39  39   0  39   0  39  39  39  39  39  39  39  39   0  39  39   0  39  39  39   0  39  39  39  39  39  39  39  39   0  39  39  39  39  39  39

  54  54  54   0   0  54  54  54  54  54  54  54   0  54  54  54  54  54  54  54  54  54  54  54  54   0   0  54   0  54  54  54  54   0  54  54  54  54   0  54  54  54  54  54  54   0  54   0  54  54  54  54  54  54  54  54  54  54   0  54  54  54   0   0   0  54  54  54  54   0  54  54  54  54  54  54  54  54   0  54  54  54   0  54   0  54   0  54  54  54  54  54  54  54  54  54  54  54  54  54  54   0  54  54   0  54   0  54  54  54   0  54  54  54  54  54  54   0   0  54  54  54  54  54   0   0  54  54  54  54   0  54  54  54  54   0  54   0  54  54  54  54  54  54  54  54   0  54  54   0  54  54  54  54  54  54  54  54  54  54  54  54  54   0  54  54   0  54  54  54  54  54  54  54  54  54   0  54  54  54  54   0  54  54  54   0  54  54   0  54  54  54   0  54  54  54  54  54  54  54  54   0  54  54  54   0  54  54  54  54  54  54   0  54  54  54  54  54  54  54   0  54  54  54  54   0  54  54  54  54   0  54   0  54  54   0  54  54  54  54  54  54  54  54  54  54  54  54   0  54   0  54  54   0  54  54  54  54  54  54  54  54  54  54  54  54  54  54  54   0  54  54  54  54  54  54  54  54  54  54  54   0  54  54  54  54  54   0   0  54   0  54  54  54   0  54  54  54  54  54  54  54  54   0  54   0  54   0  54  54  54   0   0   0  54  54  54   0  54  54  54  54  54  54  54   0  54  54   0  54  54  54  54   0   0  54   0  54   0  54  54  54  54  54  54  54  54   0  54   0  54  54  54  54  54   0   0  54   0   0   0  54  54   0  54  54   0  54  54   0  54  54  54  54  54  54  54  54  54   0   0  54  54  54  54  54  54  54  54  54  54  54  54   0   0  54  54   0   0  54  54  54  54  54  54  54  54  54  54  54  54  54  54  54   0  54  54   0  54  54  54  54  54  54  54  54  54   0  54  54  54  54  54  54  54  54   0  54  54  54  54  54   0  54   0  54  54  54  54  54   0  54  54  54  54  54  54  54  54   0  54  54  54  54  54  54   0  54   0  54  54   0  54  54  54  54  54  54  54   0  54  54   0  54  54  54  54  54  54  54   0  54  54  54  54  54   0  54  54  54   0  54  54  54  54  54  54  54   0  54  54  54  54  54   0  54  54  54  54  54  54  54  54  54  54   0  54  54   0  54  54  54   0  54  54  54  54  54  54  54  54  54  54  54  54  54  54   0  54  54  54  54   0  54  54  54   0  54   0  54  54  54  54   0  54   0  54  54  54  54  54  54  54  54   0  54  54  54  54   0  54   0   0   0  54  54  54   0   0  54  54  54  54   0  54  54  54  54  54   0  54   0  54  54  54  54  54  54  54  54   0  54  54   0  54  54  54   0  54  54  54  54  54  54  54  54   0  54  54  54  54  54  54

************************************************************************
